language Essence 1.3
letting nnodes be 10
letting nrings be 6
letting capacity be 5
letting demand be {{1, 5},
{1, 6},
{1, 9},
{1, 10},
{2, 3},
{2, 5},
{2, 7},
{2, 8},
{3, 10},
{4, 7},
{5, 6},
{5, 10},
{7, 8},
{8, 9},
{9, 10}}
